data/OOEBPP/R1000/BPP_1000_200_0.2_0.8_9.txt.ins
1000
200 200
1 160 877
2 160 437
3 160 659
4 160 584
5 160 885
6 160 71
7 160 438
8 160 222
9 160 608
10 160 67
11 160 724
12 159 204
13 159 784
14 159 981
15 159 923
16 159 630
17 159 757
18 159 523
19 159 13
20 159 577
21 159 547
22 159 693
23 159 976
24 159 567
25 159 580
26 158 585
27 158 563
28 158 488
29 158 376
30 158 953
31 158 330
32 158 58
33 158 361
34 158 209
35 158 523
36 157 1
37 157 676
38 157 25
39 157 73
40 157 867
41 157 907
42 157 550
43 157 685
44 157 532
45 157 0
46 157 224
47 156 210
48 156 418
49 156 856
50 156 985
51 156 196
52 156 962
53 156 472
54 156 544
55 156 25
56 156 598
57 156 529
58 155 687
59 155 461
60 155 292
61 155 669
62 155 250
63 155 387
64 155 986
65 155 578
66 155 622
67 154 4
68 154 231
69 154 497
70 154 679
71 154 889
72 154 944
73 154 275
74 154 907
75 154 568
76 153 716
77 153 658
78 153 399
79 153 554
80 153 9
81 153 864
82 153 515
83 153 967
84 153 731
85 153 629
86 152 507
87 152 938
88 152 630
89 152 713
90 152 411
91 152 362
92 152 257
93 152 906
94 152 450
95 152 109
96 151 745
97 151 562
98 151 489
99 151 96
100 151 332
101 150 975
102 150 19
103 150 84
104 150 276
105 150 804
106 150 604
107 149 6
108 149 889
109 149 129
110 149 411
111 149 108
112 148 677
113 148 17
114 148 177
115 148 380
116 148 86
117 148 615
118 148 973
119 148 272
120 148 658
121 148 275
122 148 940
123 148 32
124 148 158
125 148 821
126 147 862
127 147 429
128 147 926
129 147 653
130 147 341
131 147 740
132 147 638
133 146 180
134 146 259
135 146 18
136 146 11
137 146 937
138 146 720
139 146 321
140 146 656
141 146 969
142 146 267
143 145 683
144 145 4
145 145 390
146 144 203
147 144 571
148 144 433
149 144 397
150 144 562
151 144 200
152 144 9
153 144 724
154 143 560
155 143 621
156 143 145
157 143 862
158 143 471
159 143 52
160 143 771
161 143 109
162 142 744
163 142 817
164 142 445
165 142 754
166 142 981
167 142 991
168 142 90
169 142 176
170 142 577
171 141 753
172 141 528
173 141 391
174 141 45
175 140 906
176 140 465
177 140 507
178 140 361
179 140 143
180 139 143
181 139 156
182 139 638
183 139 357
184 139 762
185 139 880
186 139 629
187 139 626
188 138 283
189 138 76
190 138 215
191 138 310
192 137 200
193 137 356
194 137 649
195 137 988
196 137 805
197 137 547
198 137 335
199 137 644
200 136 498
201 136 871
202 136 76
203 136 155
204 136 619
205 136 388
206 136 329
207 136 617
208 135 133
209 135 245
210 135 154
211 135 440
212 135 957
213 135 625
214 135 422
215 135 941
216 134 116
217 134 507
218 134 333
219 134 204
220 134 755
221 134 660
222 134 309
223 134 662
224 133 843
225 133 779
226 133 979
227 133 620
228 133 314
229 133 991
230 132 332
231 132 578
232 132 736
233 132 878
234 132 642
235 131 712
236 131 789
237 131 884
238 131 712
239 131 323
240 131 73
241 130 164
242 130 128
243 130 121
244 130 421
245 130 476
246 130 705
247 130 54
248 129 264
249 129 902
250 128 95
251 128 592
252 128 571
253 128 4
254 128 289
255 128 539
256 128 349
257 128 708
258 128 731
259 128 555
260 128 931
261 128 749
262 127 36
263 127 261
264 127 885
265 127 409
266 127 917
267 127 683
268 127 650
269 127 32
270 127 466
271 126 377
272 126 28
273 126 307
274 126 15
275 126 498
276 126 57
277 126 784
278 126 13
279 126 463
280 126 379
281 126 409
282 126 291
283 126 132
284 125 826
285 125 705
286 125 552
287 125 789
288 125 622
289 125 458
290 125 805
291 125 750
292 125 442
293 124 880
294 124 141
295 124 179
296 124 242
297 124 626
298 124 325
299 124 115
300 124 613
301 124 358
302 124 806
303 123 56
304 123 524
305 123 307
306 123 783
307 123 44
308 123 955
309 123 469
310 123 585
311 123 126
312 123 155
313 122 997
314 122 64
315 122 142
316 122 746
317 122 305
318 122 416
319 122 373
320 121 540
321 121 153
322 121 911
323 121 906
324 121 249
325 121 591
326 120 200
327 120 479
328 120 474
329 120 141
330 120 158
331 120 337
332 120 983
333 119 292
334 119 684
335 119 965
336 119 56
337 119 263
338 119 797
339 119 595
340 119 277
341 119 659
342 118 599
343 118 382
344 118 313
345 118 427
346 118 81
347 118 123
348 118 545
349 117 879
350 117 108
351 117 149
352 117 272
353 117 1000
354 117 822
355 116 690
356 116 558
357 116 651
358 116 222
359 115 652
360 115 493
361 115 490
362 115 127
363 115 978
364 115 155
365 115 358
366 115 714
367 115 427
368 115 931
369 115 760
370 115 341
371 115 737
372 115 731
373 114 833
374 114 60
375 114 408
376 114 333
377 114 533
378 114 331
379 113 420
380 113 199
381 113 396
382 113 670
383 113 889
384 113 730
385 113 290
386 113 198
387 112 746
388 112 195
389 112 820
390 112 424
391 112 721
392 112 452
393 112 760
394 111 284
395 111 999
396 111 538
397 111 16
398 111 609
399 111 677
400 111 688
401 111 966
402 111 721
403 111 423
404 111 792
405 111 649
406 111 902
407 110 45
408 110 275
409 110 655
410 110 313
411 110 811
412 110 70
413 110 158
414 110 482
415 110 862
416 110 354
417 109 93
418 109 919
419 109 974
420 109 135
421 109 873
422 109 948
423 109 674
424 108 716
425 108 935
426 108 887
427 108 963
428 108 255
429 108 229
430 108 833
431 108 349
432 107 673
433 107 918
434 107 778
435 107 125
436 107 66
437 106 713
438 106 720
439 106 227
440 106 493
441 106 56
442 106 729
443 106 621
444 105 771
445 105 243
446 105 11
447 105 445
448 105 478
449 105 311
450 104 82
451 104 206
452 104 479
453 104 778
454 104 631
455 104 581
456 104 890
457 104 310
458 103 68
459 103 8
460 103 175
461 103 384
462 103 96
463 103 332
464 103 414
465 102 979
466 102 297
467 102 512
468 102 240
469 102 119
470 102 87
471 102 436
472 101 415
473 101 773
474 101 646
475 101 861
476 101 318
477 101 909
478 101 188
479 101 180
480 100 249
481 100 229
482 100 394
483 100 706
484 100 429
485 100 237
486 99 232
487 99 207
488 99 141
489 99 969
490 99 360
491 99 217
492 99 466
493 99 70
494 99 473
495 98 495
496 98 158
497 98 824
498 98 771
499 98 49
500 98 286
501 98 69
502 97 146
503 97 527
504 97 672
505 97 902
506 97 107
507 97 722
508 97 107
509 97 644
510 97 646
511 97 634
512 96 56
513 96 598
514 96 874
515 96 481
516 96 870
517 96 450
518 96 813
519 96 738
520 95 636
521 95 511
522 95 229
523 95 213
524 95 315
525 95 733
526 95 581
527 94 844
528 94 158
529 94 803
530 94 422
531 94 141
532 94 969
533 94 985
534 94 653
535 93 399
536 93 657
537 93 119
538 93 949
539 93 313
540 93 700
541 93 95
542 93 913
543 93 285
544 93 430
545 93 367
546 92 211
547 92 375
548 92 872
549 92 753
550 92 762
551 92 549
552 92 976
553 92 561
554 92 275
555 92 536
556 91 731
557 91 181
558 91 3
559 91 690
560 91 98
561 91 58
562 91 556
563 91 45
564 90 440
565 90 378
566 90 573
567 90 489
568 90 780
569 90 409
570 90 799
571 90 925
572 90 11
573 90 317
574 90 91
575 90 216
576 90 835
577 89 916
578 89 932
579 89 955
580 89 59
581 89 349
582 89 834
583 89 466
584 89 713
585 89 745
586 89 852
587 89 639
588 89 599
589 89 893
590 88 952
591 88 485
592 88 585
593 88 106
594 88 350
595 88 699
596 87 569
597 87 748
598 87 311
599 87 763
600 87 366
601 87 441
602 87 777
603 87 337
604 87 797
605 87 173
606 87 769
607 87 113
608 87 849
609 87 627
610 86 201
611 86 870
612 86 630
613 86 953
614 86 563
615 86 941
616 85 675
617 85 308
618 85 470
619 85 73
620 85 82
621 85 135
622 85 300
623 85 530
624 84 426
625 84 636
626 84 51
627 84 248
628 84 689
629 84 889
630 84 664
631 84 65
632 84 57
633 83 767
634 83 303
635 83 498
636 83 419
637 83 379
638 83 701
639 83 722
640 83 999
641 83 60
642 83 431
643 83 809
644 83 450
645 83 888
646 82 304
647 82 242
648 82 180
649 82 483
650 82 351
651 82 429
652 82 987
653 82 632
654 81 333
655 81 51
656 81 124
657 81 22
658 80 601
659 80 687
660 80 127
661 80 301
662 80 265
663 80 832
664 80 136
665 80 470
666 79 354
667 79 2
668 79 478
669 79 834
670 79 630
671 79 150
672 79 348
673 79 274
674 79 345
675 79 971
676 79 516
677 79 9
678 79 103
679 79 330
680 79 463
681 79 487
682 79 676
683 78 244
684 78 99
685 78 284
686 78 372
687 78 230
688 78 977
689 78 682
690 78 975
691 78 701
692 78 377
693 78 460
694 78 132
695 78 48
696 77 595
697 77 498
698 77 557
699 77 816
700 77 526
701 77 472
702 76 406
703 76 267
704 76 812
705 76 79
706 76 115
707 76 683
708 75 573
709 75 784
710 75 96
711 75 90
712 75 468
713 75 745
714 75 346
715 75 959
716 75 690
717 75 353
718 75 566
719 75 25
720 74 34
721 74 595
722 74 316
723 74 926
724 74 176
725 74 444
726 74 801
727 74 492
728 74 439
729 74 189
730 73 820
731 73 517
732 73 934
733 73 495
734 73 775
735 73 369
736 73 647
737 73 342
738 72 920
739 72 245
740 72 597
741 72 296
742 72 690
743 72 51
744 72 636
745 72 645
746 72 860
747 72 703
748 72 841
749 71 511
750 71 570
751 71 615
752 71 249
753 71 252
754 71 628
755 71 513
756 71 679
757 70 14
758 70 787
759 70 363
760 70 330
761 70 856
762 70 243
763 70 796
764 70 746
765 69 697
766 69 63
767 69 396
768 69 377
769 69 572
770 69 827
771 68 873
772 68 410
773 68 83
774 68 411
775 68 796
776 68 876
777 68 200
778 68 411
779 68 235
780 68 957
781 68 115
782 67 872
783 67 843
784 67 475
785 67 49
786 67 692
787 67 317
788 67 464
789 67 269
790 66 981
791 66 117
792 65 706
793 65 455
794 65 261
795 65 14
796 65 54
797 65 100
798 65 79
799 64 204
800 64 564
801 64 680
802 64 292
803 64 230
804 64 265
805 64 287
806 64 643
807 64 130
808 64 979
809 64 214
810 64 367
811 63 94
812 63 55
813 63 901
814 63 674
815 63 12
816 63 953
817 63 289
818 63 718
819 63 499
820 63 415
821 62 842
822 62 969
823 62 867
824 62 622
825 62 822
826 62 163
827 61 178
828 61 564
829 61 330
830 61 917
831 61 970
832 61 729
833 61 769
834 60 564
835 60 599
836 60 535
837 60 523
838 60 303
839 60 301
840 60 857
841 60 327
842 59 532
843 59 493
844 59 997
845 59 844
846 59 602
847 59 453
848 58 573
849 58 268
850 58 785
851 58 512
852 58 654
853 58 864
854 58 151
855 58 172
856 58 40
857 58 225
858 58 210
859 57 421
860 57 338
861 57 910
862 57 675
863 57 56
864 57 897
865 56 77
866 56 414
867 56 698
868 56 614
869 56 436
870 56 970
871 56 588
872 55 866
873 55 239
874 55 108
875 55 552
876 55 590
877 55 519
878 55 400
879 55 78
880 54 935
881 54 172
882 54 736
883 54 14
884 54 629
885 54 0
886 54 499
887 53 438
888 53 957
889 53 828
890 53 284
891 53 871
892 52 674
893 52 618
894 52 555
895 52 876
896 52 570
897 52 198
898 52 988
899 52 90
900 52 408
901 52 36
902 51 975
903 51 7
904 51 391
905 51 216
906 51 877
907 51 985
908 51 88
909 51 426
910 51 79
911 51 92
912 51 323
913 50 241
914 50 167
915 50 858
916 50 186
917 50 276
918 50 522
919 49 424
920 49 537
921 49 400
922 49 626
923 49 330
924 49 165
925 48 847
926 48 666
927 48 273
928 48 950
929 48 412
930 48 222
931 47 491
932 47 724
933 47 809
934 47 188
935 47 623
936 47 555
937 47 487
938 46 643
939 46 370
940 46 812
941 46 731
942 46 745
943 46 657
944 46 475
945 46 433
946 46 311
947 46 615
948 46 632
949 46 735
950 46 254
951 45 862
952 45 469
953 45 824
954 45 937
955 45 65
956 45 302
957 45 625
958 44 372
959 44 204
960 44 160
961 44 1000
962 44 240
963 44 981
964 44 211
965 44 284
966 44 349
967 44 352
968 43 620
969 43 621
970 43 850
971 43 835
972 43 741
973 42 729
974 42 665
975 42 60
976 42 783
977 42 311
978 42 191
979 42 539
980 42 506
981 42 400
982 42 218
983 42 159
984 41 506
985 41 349
986 41 273
987 41 718
988 41 891
989 41 511
990 41 956
991 40 742
992 40 595
993 40 942
994 40 843
995 40 794
996 40 556
997 40 863
998 40 723
999 40 906
1000 40 947
