results/OOEBPP/BPP_1000_200_0.2_0.8_9.txt.ins.log
293,292.69,32.182,OPT,11535,0,0,AI,0,0.105802,2.91126,0.707022,31.0563,0,2,0,72,72
